ipopt.opt
output_file "ipopt.out"