ipopt.out
This is Ipopt version 3.14.4, running with linear solver MUMPS 5.4.1.

Number of nonzeros in equality constraint Jacobian...:     1408
Number of nonzeros in inequality constraint Jacobian.:        0
Number of nonzeros in Lagrangian Hessian.............:        0

Total number of variables............................:      196
                     variables with only lower bounds:        0
                variables with lower and upper bounds:        0
                     variables with only upper bounds:        0
Total number of equality constraints.................:      160
Total number of inequality constraints...............:        3
        inequality constraints with only lower bounds:        0
   inequality constraints with lower and upper bounds:        3
        inequality constraints with only upper bounds:        0

iter    objective    inf_pr   inf_du lg(mu)  ||d||  lg(rg) alpha_du alpha_pr  ls
   0  3.2001889e+02 3.14e+00 2.33e-03   0.0 0.00e+00    -  0.00e+00 0.00e+00   0
   1  2.6483754e+02 2.59e+01 5.44e+04  -7.9 1.42e+02    -  1.00e+00 1.00e+00h  1
   2  2.3435908e+02 4.14e+01 8.73e+04  -9.7 2.49e+02    -  1.00e+00 5.00e-01f  2
   3  3.4885477e+02 4.82e+01 2.15e+04 -11.0 1.62e+02    -  1.00e+00 1.00e+00h  1
   4  3.0615253e+02 6.59e+01 1.80e+05 -11.0 1.35e+02    -  1.00e+00 1.00e+00H  1
   5  2.1218978e+02 1.00e+02 1.71e+04 -11.0 2.27e+02    -  1.00e+00 1.00e+00f  1
   6  3.4066663e+02 3.57e+01 4.97e+03 -11.0 2.85e+02    -  1.00e+00 1.00e+00h  1
   7  3.3636433e+02 1.08e+01 3.35e+03 -11.0 1.31e+02    -  1.00e+00 1.00e+00f  1
   8  4.0460920e+02 9.59e+00 7.76e+03 -11.0 2.90e+02    -  1.00e+00 2.50e-01h  3
   9  4.6596093e+02 9.10e+00 6.81e+03 -11.0 3.49e+02    -  1.00e+00 1.25e-01h  4
iter    objective    inf_pr   inf_du lg(mu)  ||d||  lg(rg) alpha_du alpha_pr  ls
  10  5.3924759e+02 8.60e+00 6.60e+03 -11.0 6.04e+02    -  1.00e+00 1.25e-01h  4
  11  6.6061982e+02 7.56e+00 5.58e+03 -11.0 7.34e+02    -  1.00e+00 1.25e-01h  4
  12  7.9285667e+02 6.84e+00 7.81e+03 -11.0 4.58e+02    -  1.00e+00 1.25e-01h  4
  13  7.8659483e+02 5.98e+00 5.61e+03 -11.0 7.14e+01    -  1.00e+00 2.50e-01f  3
  14  7.9638903e+02 5.87e+00 4.81e+03 -11.0 3.64e+02    -  1.00e+00 3.12e-02h  6
  15  8.2013861e+02 5.66e+00 6.81e+03 -11.0 3.39e+02    -  1.00e+00 6.25e-02h  5
  16  8.6986023e+02 5.00e+00 1.24e+04 -11.0 2.31e+02    -  1.00e+00 1.25e-01h  4
  17  1.0925877e+03 3.96e+00 9.42e+04 -11.0 3.78e+02    -  1.00e+00 2.50e-01h  3
  18  2.0173355e+03 2.96e+01 5.60e+05 -11.0 2.35e+02    -  1.00e+00 1.00e+00w  1
  19  1.9609164e+03 2.73e+01 1.79e+05 -11.0 1.12e+02    -  1.00e+00 1.00e+00w  1
iter    objective    inf_pr   inf_du lg(mu)  ||d||  lg(rg) alpha_du alpha_pr  ls
  20  1.6882396e+03 1.76e+01 2.32e+03 -11.0 1.58e+02    -  1.00e+00 1.00e+00w  1
  21  1.6521552e+03 6.95e+00 2.20e+03 -11.0 1.20e+02    -  1.00e+00 1.00e+00h  1
  22  1.6767749e+03 5.58e+00 1.38e+03 -11.0 7.47e+01    -  1.00e+00 5.00e-01h  2
  23  1.6396718e+03 1.17e+00 2.90e+02 -11.0 6.34e+01    -  1.00e+00 1.00e+00f  1
  24  1.4252213e+03 6.23e+00 3.96e+02 -11.0 3.57e+02    -  1.00e+00 2.50e-01f  3
  25  1.5366746e+03 5.74e-01 9.71e+01 -11.0 6.12e+01    -  1.00e+00 1.00e+00h  1
  26  1.4226623e+03 6.29e+01 1.24e+03 -11.0 1.90e+02    -  1.00e+00 1.00e+00f  1
  27  1.2950561e+03 5.85e+01 5.78e+02 -11.0 4.94e+02    -  1.00e+00 1.00e+00f  1
  28  1.0617896e+03 4.99e+01 6.49e+02 -11.0 1.86e+03    -  1.00e+00 2.50e-01f  3
  29  9.8245760e+02 3.03e+01 2.77e+02 -11.0 6.05e+02    -  1.00e+00 5.00e-01f  2
iter    objective    inf_pr   inf_du lg(mu)  ||d||  lg(rg) alpha_du alpha_pr  ls
  30  1.2913648e+03 7.65e+00 2.46e+02 -11.0 2.33e+02    -  1.00e+00 1.00e+00h  1
  31  1.0199300e+03 3.68e+01 2.00e+02 -11.0 3.70e+02    -  1.00e+00 1.00e+00f  1
  32  9.7570250e+02 3.20e+01 1.29e+02 -11.0 1.19e+03    -  1.00e+00 1.25e-01f  4
  33  9.4811795e+02 6.19e+01 3.23e+02 -11.0 8.28e+02    -  1.00e+00 2.50e-01f  3
  34  9.0672719e+02 6.54e+01 1.27e+02 -11.0 5.51e+02    -  1.00e+00 5.00e-01f  2
  35  3.8578975e+03 3.90e+01 1.04e+03 -11.0 1.53e+03    -  1.00e+00 1.00e+00H  1
  36  2.2391841e+03 2.49e+01 7.11e+02 -11.0 2.31e+03    -  1.00e+00 2.50e-01f  3
  37  1.3258579e+03 2.29e+01 6.36e+02 -11.0 3.39e+03    -  1.00e+00 1.25e-01f  4
  38  8.0579632e+02 1.59e+01 6.13e+02 -11.0 1.76e+03    -  1.00e+00 2.50e-01f  3
  39  7.6319166e+02 2.63e+01 2.91e+02 -11.0 3.43e+02    -  1.00e+00 5.00e-01f  2
iter    objective    inf_pr   inf_du lg(mu)  ||d||  lg(rg) alpha_du alpha_pr  ls
  40  7.9921107e+02 2.50e+01 2.38e+02 -11.0 2.07e+02    -  1.00e+00 2.50e-01h  3
  41  9.7550258e+02 2.18e+01 4.81e+01 -11.0 2.93e+02    -  1.00e+00 1.00e+00h  1
  42  9.1520284e+02 2.19e+01 4.43e+01 -11.0 1.13e+03    -  1.00e+00 6.25e-02f  5
  43  8.2381486e+02 1.68e+01 1.27e+02 -11.0 3.04e+02    -  1.00e+00 5.00e-01f  2
  44  7.9490530e+02 6.33e+00 1.07e+02 -11.0 2.32e+02    -  1.00e+00 5.00e-01f  2
  45  8.2360966e+02 3.14e+00 8.44e+01 -11.0 1.58e+02    -  1.00e+00 5.00e-01h  2
  46  8.2997238e+02 2.50e+00 4.13e+01 -11.0 2.32e+02    -  1.00e+00 5.00e-01h  2
  47  8.7651858e+02 4.33e+00 9.66e+01 -11.0 1.90e+02    -  1.00e+00 5.00e-01h  2
  48  9.0757672e+02 3.70e+00 4.17e+02 -11.0 1.16e+02    -  1.00e+00 1.00e+00h  1
  49  8.9943170e+02 3.14e+00 4.39e+02 -11.0 1.44e+02    -  1.00e+00 2.50e-01f  3
iter    objective    inf_pr   inf_du lg(mu)  ||d||  lg(rg) alpha_du alpha_pr  ls
  50  8.8328283e+02 3.63e+00 2.60e+02 -11.0 1.22e+02    -  1.00e+00 5.00e-01f  2
  51  8.5110096e+02 3.63e+00 7.59e+01 -11.0 1.96e+02    -  1.00e+00 2.50e-01f  3
  52  9.1409997e+02 3.07e+00 1.48e+02 -11.0 6.52e+01    -  1.00e+00 1.00e+00h  1
  53  8.9468463e+02 2.79e+00 1.83e+02 -11.0 7.11e+01    -  1.00e+00 1.00e+00f  1
  54  8.9201577e+02 8.62e-01 1.35e+02 -11.0 5.42e+01    -  1.00e+00 1.00e+00f  1
  55  8.8980029e+02 1.82e-01 8.80e+01 -11.0 5.33e+01    -  1.00e+00 1.00e+00f  1
  56  8.8149157e+02 7.71e-01 7.30e+01 -11.0 3.33e+01    -  1.00e+00 1.00e+00f  1
  57  8.8452369e+02 1.63e-01 6.16e+01 -11.0 1.71e+01    -  1.00e+00 1.00e+00h  1
  58  8.7951551e+02 1.34e+00 1.99e+02 -11.0 1.49e+02    -  1.00e+00 2.50e-01f  3
  59  8.7909838e+02 1.55e+00 1.17e+02 -11.0 1.44e+02    -  1.00e+00 2.50e-01f  3
iter    objective    inf_pr   inf_du lg(mu)  ||d||  lg(rg) alpha_du alpha_pr  ls
  60  8.7729964e+02 8.45e-01 9.29e+01 -11.0 7.18e+01    -  1.00e+00 1.00e+00f  1
  61  8.7325279e+02 1.02e+00 3.83e+01 -11.0 6.29e+01    -  1.00e+00 1.00e+00f  1
  62  9.3476490e+02 4.52e-01 3.19e+02 -11.0 9.24e+01    -  1.00e+00 1.00e+00H  1
  63  8.7119495e+02 6.27e+00 1.34e+02 -11.0 1.51e+02    -  1.00e+00 1.00e+00f  1
  64  8.5733498e+02 7.68e+00 1.29e+02 -11.0 1.95e+02    -  1.00e+00 5.00e-01f  2
  65  8.6417711e+02 3.63e+00 1.21e+02 -11.0 9.99e+01    -  1.00e+00 5.00e-01h  2
  66  8.1939225e+02 1.87e+01 4.40e+02 -11.0 2.47e+02    -  1.00e+00 5.00e-01f  2
  67  7.5693405e+02 2.00e+01 1.57e+02 -11.0 9.91e+01    -  1.00e+00 1.00e+00f  1
  68  8.0301997e+02 1.01e+01 2.98e+01 -11.0 1.63e+02    -  1.00e+00 5.00e-01h  2
  69  8.4224824e+02 5.67e+00 7.86e+01 -11.0 1.64e+02    -  1.00e+00 5.00e-01h  2
iter    objective    inf_pr   inf_du lg(mu)  ||d||  lg(rg) alpha_du alpha_pr  ls
  70  8.3882073e+02 4.07e+00 9.71e+01 -11.0 1.06e+02    -  1.00e+00 1.00e+00f  1
  71  8.6682569e+02 2.06e+00 1.09e+02 -11.0 7.16e+01    -  1.00e+00 5.00e-01h  2
  72  8.7225534e+02 1.44e+00 1.31e+02 -11.0 8.02e+01    -  1.00e+00 5.00e-01h  2
  73  8.7297830e+02 1.28e+00 1.24e+02 -11.0 5.88e+01    -  1.00e+00 1.25e-01h  4
  74  8.8275152e+02 6.86e-01 1.68e+02 -11.0 3.14e+01    -  1.00e+00 1.00e+00h  1
  75  8.7696166e+02 4.25e-01 9.75e+01 -11.0 3.32e+01    -  1.00e+00 1.00e+00f  1
  76  8.7340536e+02 3.69e-01 4.88e+01 -11.0 2.30e+01    -  1.00e+00 1.00e+00f  1
  77  8.7359897e+02 2.77e-01 6.02e+01 -11.0 3.05e+01    -  1.00e+00 2.50e-01h  3
  78  8.7778989e+02 1.55e-01 5.81e+01 -11.0 2.53e+01    -  1.00e+00 1.00e+00H  1
  79  8.7540346e+02 2.71e+00 1.05e+02 -11.0 4.08e+01    -  1.00e+00 1.00e+00f  1
iter    objective    inf_pr   inf_du lg(mu)  ||d||  lg(rg) alpha_du alpha_pr  ls
  80  9.0139773e+02 1.26e+00 1.01e+02 -11.0 8.05e+01    -  1.00e+00 1.00e+00H  1
  81  8.4980599e+02 5.78e+00 4.29e+01 -11.0 4.78e+01    -  1.00e+00 1.00e+00f  1
  82  8.7839851e+02 6.97e-01 1.15e+02 -11.0 7.21e+01    -  1.00e+00 1.00e+00h  1
  83  8.7459229e+02 5.00e-01 5.65e+01 -11.0 2.95e+01    -  1.00e+00 1.00e+00f  1
  84  8.7449882e+02 1.31e-01 5.44e+01 -11.0 2.12e+01    -  1.00e+00 1.00e+00h  1
  85  8.7415462e+02 2.17e-01 1.14e+02 -11.0 4.23e+01    -  1.00e+00 5.00e-01f  2
  86  8.7670807e+02 2.63e-01 4.44e+01 -11.0 3.54e+01    -  1.00e+00 1.00e+00H  1
  87  8.7313701e+02 4.02e-01 6.29e+01 -11.0 2.43e+01    -  1.00e+00 1.00e+00f  1
  88  8.7465985e+02 3.06e-01 1.65e+01 -11.0 3.46e+01    -  1.00e+00 1.00e+00h  1
  89  8.8910953e+02 1.26e-01 1.05e+02 -11.0 5.92e+01    -  1.00e+00 1.00e+00H  1
iter    objective    inf_pr   inf_du lg(mu)  ||d||  lg(rg) alpha_du alpha_pr  ls
  90  8.7249828e+02 1.57e+00 1.03e+02 -11.0 7.34e+01    -  1.00e+00 1.00e+00f  1
  91  8.7013345e+02 1.44e+00 1.42e+02 -11.0 2.50e+02    -  1.00e+00 1.25e-01f  4
  92  8.6659928e+02 7.40e-01 7.17e+01 -11.0 4.42e+01    -  1.00e+00 1.00e+00f  1
  93  8.6469063e+02 3.34e+00 1.36e+02 -11.0 7.94e+01    -  1.00e+00 1.00e+00H  1
  94  8.4812324e+02 1.38e+00 3.71e+02 -11.0 6.92e+01    -  1.00e+00 1.00e+00f  1
  95  8.4598847e+02 1.03e+00 1.52e+02 -11.0 8.27e+01    -  1.00e+00 5.00e-01f  2
  96  8.6302646e+02 7.53e-01 1.53e+02 -11.0 4.26e+01    -  1.00e+00 1.00e+00h  1
  97  8.6315111e+02 5.61e-01 1.00e+02 -11.0 7.05e+01    -  1.00e+00 2.50e-01h  3
  98  8.9458326e+02 7.73e-02 1.77e+02 -11.0 1.02e+02    -  1.00e+00 1.00e+00H  1
  99  8.6709309e+02 1.30e+00 4.42e+01 -11.0 5.57e+01    -  1.00e+00 1.00e+00f  1
iter    objective    inf_pr   inf_du lg(mu)  ||d||  lg(rg) alpha_du alpha_pr  ls
 100  8.7451152e+02 5.10e-02 4.37e+01 -11.0 2.19e+01    -  1.00e+00 1.00e+00h  1
 101  8.7422611e+02 3.88e-02 2.62e+01 -11.0 9.60e+00    -  1.00e+00 1.00e+00h  1
 102  8.7425167e+02 5.79e-02 2.77e+01 -11.0 1.09e+01    -  1.00e+00 1.00e+00h  1
 103  8.7416487e+02 7.56e-02 5.93e+01 -11.0 5.55e+03    -  1.00e+00 1.95e-03f 10
 104  8.7740016e+02 4.41e-02 5.98e+01 -11.0 2.65e+01    -  1.00e+00 1.00e+00H  1
 105  8.7050903e+02 2.08e-01 4.63e+01 -11.0 1.89e+01    -  1.00e+00 1.00e+00f  1
 106  8.7975247e+02 4.23e-01 9.26e+01 -11.0 7.35e+01    -  1.00e+00 1.00e+00H  1
 107  8.7770707e+02 6.91e+00 2.28e+02 -11.0 9.42e+01    -  1.00e+00 5.00e-01f  2
 108  8.7320055e+02 6.61e+00 1.99e+02 -11.0 1.53e+02    -  1.00e+00 5.00e-01f  2
 109  8.7419846e+02 1.43e+00 1.01e+02 -11.0 5.10e+01    -  1.00e+00 1.00e+00h  1
iter    objective    inf_pr   inf_du lg(mu)  ||d||  lg(rg) alpha_du alpha_pr  ls
 110  8.6891915e+02 3.44e+00 1.06e+02 -11.0 8.90e+01    -  1.00e+00 1.00e+00f  1
 111  8.3967707e+02 6.49e+00 5.00e+02 -11.0 1.38e+02    -  1.00e+00 1.00e+00f  1
 112  7.8491448e+02 1.30e+01 1.62e+02 -11.0 1.30e+02    -  1.00e+00 1.00e+00f  1
 113  8.4095312e+02 6.39e+00 1.01e+02 -11.0 2.93e+02    -  1.00e+00 5.00e-01h  2
 114  8.4951913e+02 4.34e+00 1.33e+02 -11.0 4.42e+02    -  1.00e+00 5.00e-01h  2
 115  8.4135834e+02 5.62e+00 1.28e+02 -11.0 1.16e+02    -  1.00e+00 1.00e+00f  1
 116  8.8652691e+02 5.11e+00 1.48e+02 -11.0 6.41e+01    -  1.00e+00 1.00e+00h  1
 117  8.5628983e+02 1.89e+00 2.05e+02 -11.0 6.24e+01    -  1.00e+00 1.00e+00f  1
 118  8.4307035e+02 1.04e+00 3.65e+01 -11.0 4.62e+01    -  1.00e+00 1.00e+00f  1
 119  8.7255713e+02 1.38e+00 6.36e+01 -11.0 4.63e+01    -  1.00e+00 1.00e+00h  1
iter    objective    inf_pr   inf_du lg(mu)  ||d||  lg(rg) alpha_du alpha_pr  ls
 120  8.7763632e+02 9.52e-01 1.15e+02 -11.0 3.43e+01    -  1.00e+00 1.00e+00h  1
 121  8.7644281e+02 6.96e-01 1.36e+02 -11.0 4.73e+01    -  1.00e+00 1.00e+00f  1
 122  8.7345244e+02 3.93e-01 3.49e+01 -11.0 2.70e+01    -  1.00e+00 1.00e+00f  1
 123  8.7509701e+02 1.21e-01 3.97e+01 -11.0 2.04e+01    -  1.00e+00 1.00e+00h  1
 124  8.7530278e+02 1.18e-01 3.14e+01 -11.0 1.44e+01    -  1.00e+00 1.00e+00h  1
 125  8.7493379e+02 1.72e-01 5.72e+01 -11.0 2.05e+01    -  1.00e+00 1.00e+00f  1
 126  8.7377568e+02 3.93e-01 1.18e+02 -11.0 1.40e+01    -  1.00e+00 1.00e+00f  1
 127  8.7368578e+02 3.76e-01 7.68e+01 -11.0 3.06e+02    -  1.00e+00 3.12e-02f  6
 128  8.7341391e+02 9.29e-02 2.96e+01 -11.0 2.79e+01    -  1.00e+00 1.00e+00f  1
 129  8.6922093e+02 4.10e+00 1.67e+02 -11.0 7.15e+01    -  1.00e+00 1.00e+00F  1
iter    objective    inf_pr   inf_du lg(mu)  ||d||  lg(rg) alpha_du alpha_pr  ls
 130  8.6344237e+02 1.39e+00 2.99e+02 -11.0 3.16e+01    -  1.00e+00 1.00e+00f  1
 131  8.6196828e+02 5.72e-01 1.28e+02 -11.0 4.57e+01    -  1.00e+00 1.00e+00f  1
 132  8.6448637e+02 3.53e-01 3.77e+01 -11.0 7.03e+01    -  1.00e+00 1.00e+00h  1
 133  8.8222129e+02 9.62e-02 1.02e+02 -11.0 5.44e+01    -  1.00e+00 1.00e+00H  1
 134  8.6686413e+02 1.09e+00 5.68e+01 -11.0 5.19e+01    -  1.00e+00 1.00e+00f  1
 135  8.6043834e+02 7.07e-01 3.21e+01 -11.0 2.74e+01    -  1.00e+00 1.00e+00f  1
 136  8.6006381e+02 5.55e-01 7.76e+01 -11.0 4.40e+01    -  1.00e+00 1.00e+00f  1
 137  8.6667341e+02 6.15e-01 4.51e+01 -11.0 4.87e+01    -  1.00e+00 1.00e+00h  1
 138  8.6528881e+02 5.68e-01 1.36e+02 -11.0 4.22e+01    -  1.00e+00 5.00e-01f  2
 139  8.6018814e+02 7.45e-01 2.19e+01 -11.0 3.91e+01    -  1.00e+00 1.00e+00f  1
iter    objective    inf_pr   inf_du lg(mu)  ||d||  lg(rg) alpha_du alpha_pr  ls
 140  8.6618061e+02 3.25e-01 3.68e+01 -11.0 2.66e+01    -  1.00e+00 1.00e+00h  1
 141  8.6528158e+02 1.26e-01 2.30e+01 -11.0 1.52e+01    -  1.00e+00 1.00e+00f  1
 142  8.6640894e+02 1.39e-02 2.46e+01 -11.0 5.50e+00    -  1.00e+00 1.00e+00h  1
 143  8.7053667e+02 1.89e-03 2.39e+01 -11.0 1.49e+01    -  1.00e+00 1.00e+00H  1
 144  8.6323362e+02 1.05e-01 1.55e+01 -11.0 1.81e+01    -  1.00e+00 1.00e+00f  1
 145  8.6637215e+02 3.82e-02 2.02e+01 -11.0 7.08e+00    -  1.00e+00 1.00e+00h  1
 146  8.6632952e+02 4.40e-02 3.52e+01 -11.0 4.33e+00    -  1.00e+00 1.00e+00h  1
 147  8.6610686e+02 2.04e-02 7.84e+00 -11.0 3.76e+00    -  1.00e+00 1.00e+00h  1
 148  8.6639039e+02 5.49e-04 4.96e+00 -11.0 7.22e-01    -  1.00e+00 1.00e+00h  1
 149  8.6637556e+02 3.15e-03 1.36e+01 -11.0 5.77e+01    -  1.00e+00 6.25e-02f  5
iter    objective    inf_pr   inf_du lg(mu)  ||d||  lg(rg) alpha_du alpha_pr  ls
 150  8.6635635e+02 1.34e-03 3.92e+00 -11.0 1.65e+00    -  1.00e+00 1.00e+00h  1
 151  8.6636650e+02 2.13e-04 6.27e+00 -11.0 7.50e-01    -  1.00e+00 1.00e+00h  1
 152  8.6636351e+02 1.49e-04 4.70e+00 -11.0 7.05e-01    -  1.00e+00 1.00e+00h  1
 153  8.6636436e+02 1.03e-05 3.78e+00 -11.0 2.26e-01    -  1.00e+00 1.00e+00h  1
 154  8.6636340e+02 2.10e-04 5.23e+00 -11.0 6.69e-01    -  1.00e+00 1.00e+00h  1
 155  8.6634813e+02 9.87e-03 1.76e+01 -11.0 2.29e+00    -  1.00e+00 1.00e+00h  1
 156  8.6618272e+02 7.55e-03 1.16e+00 -11.0 2.08e+00    -  1.00e+00 1.00e+00h  1
 157  8.6636321e+02 2.54e-05 9.98e-01 -11.0 2.87e-01    -  1.00e+00 1.00e+00h  1
 158  8.6636436e+02 5.55e-08 2.08e-03 -11.0 7.79e-01    -  1.00e+00 1.00e+00H  1
 159  8.6636257e+02 7.54e-05 1.66e-01 -11.0 7.51e-01    -  1.00e+00 1.00e+00f  1
iter    objective    inf_pr   inf_du lg(mu)  ||d||  lg(rg) alpha_du alpha_pr  ls
 160  8.6636302e+02 4.76e-06 4.28e-01 -11.0 1.51e-01    -  1.00e+00 1.00e+00h  1
 161  8.6636302e+02 3.32e-06 1.21e-01 -11.0 7.37e-02    -  1.00e+00 1.00e+00h  1
 162  8.6636308e+02 2.34e-08 3.13e-04 -11.0 1.24e-01    -  1.00e+00 1.00e+00H  1

Number of Iterations....: 162

                                   (scaled)                 (unscaled)
Objective...............:   8.6636307515873386e+02    8.6636307515873386e+02
Dual infeasibility......:   3.1297192033968857e-04    3.1297192033968857e-04
Constraint violation....:   2.3372162871737601e-08    2.3372162871737601e-08
Variable bound violation:   0.0000000000000000e+00    0.0000000000000000e+00
Complementarity.........:   9.9999999999999994e-12    9.9999999999999994e-12
Overall NLP error.......:   9.5336620157843735e-05    3.1297192033968857e-04


Number of objective function evaluations             = 359
Number of objective gradient evaluations             = 163
Number of equality constraint evaluations            = 360
Number of inequality constraint evaluations          = 360
Number of equality constraint Jacobian evaluations   = 163
Number of inequality constraint Jacobian evaluations = 163
Number of Lagrangian Hessian evaluations             = 0
Total seconds in IPOPT                               = 2.210

EXIT: Optimal Solution Found.
